(set-info :Origin "This instance was generated by: BanditFuzz-- an RL fuzzer for SMT solvers" )
(set-info :Author "Joe Scott, Fed Mora, Vijay Ganesh" )
(set-info :Contact "Joe Scott, joseph.scott@uwaterloo.ca")
(set-logic QF_BV)
(declare-const bool_0 Bool)
(declare-const bool_1 Bool)
(declare-const bool_2 Bool)
(declare-const bool_3 Bool)
(declare-const bool_4 Bool)
(declare-const bv_0 (_ BitVec 32))
(declare-const bv_1 (_ BitVec 32))
(declare-const bv_2 (_ BitVec 32))
(declare-const bv_3 (_ BitVec 32))
(declare-const bv_4 (_ BitVec 32))
(assert (bvule (bvsrem (bvudiv #x863e98c7  bv_3) (bvxnor #x9a3b1d32  #xde1a8b8d )) (bvudiv (bvsdiv bv_2 #x415942c6 ) (bvsub #x07afdab6  #x8c6a2baf ))))
(assert (bvslt (bvashr (bvnand #xdd9a4d16  #x1f22917a ) (bvashr bv_2 bv_4)) (bvsrem (bvand #x6e22bf1c  bv_4) (bvand #xb0177cf4  bv_0))))
(assert (xor (bvsle (bvnand #xbe83ea41  #x0ef0d6ae ) (bvor #x377879cd  #x5bb3fcc2 )) (bvule (bvurem bv_1 bv_3) (bvand #x2c7eefbb  #x783b7125 ))))
(assert (bvugt (bvmul (bvxor bv_4 #x5c754b0f ) (bvlshr bv_1 #x5ad519c5 )) (bvnand (bvsub #xab69398e  bv_1) (bvudiv bv_2 #xbf0c27fc ))))
(assert (bvule (bvand (bvmul bv_0 bv_4) (bvand bv_1 #x92594887 )) (bvashr (bvxnor #x280ee255  #xd9df1286 ) (bvmul #x41332c28  bv_1))))
(check-sat)
(exit)
